(set-logic HORN)
(set-info :source |
  Benchmark: test_safe_2019/mochi/sum3.ml
  Generated by MoCHi
|)
(set-info :status unknown)
(declare-fun |fail_10[51:0]| ( Int) Bool)
(declare-fun |sum[34:1][46:0]| ( Int  Int) Bool)
(declare-fun |sum[37:1][40:0]| ( Int  Int) Bool)
(declare-fun |sum[37:0]| ( Int) Bool)
(declare-fun |sum[34:0]| ( Int) Bool)
(assert (not (exists ((x0 Int)) (|fail_10[51:0]| x0))))
(assert (forall ((x0 Int)(x1 Int)(x2 Int)) (=> (and (|sum[34:1][46:0]| x1 x2) (>= (* 3 x1) (+ 4 x2))) (|fail_10[51:0]| x0))))
(assert (forall ((x0 Int)(x1 Int)(var25 Int)(var24 Int)) (=> (and (|sum[34:0]| x0) (and (|sum[37:1][40:0]| var24 var25) (and (= x1 (+ x0 var25)) (and (>= x0 1) (= (+ 1 var24) x0))))) (|sum[34:1][46:0]| x0 x1))))
(assert (forall ((x1 Int)(x0 Int)) (=> (and (|sum[37:0]| x1) (and (= x0 0) (<= x1 0))) (|sum[37:1][40:0]| x1 x0))))
(assert (forall ((x0 Int)(x1 Int)) (=> (and (|sum[34:0]| x1) (and (= (+ 1 x0) x1) (>= x1 1))) (|sum[37:0]| x0))))
(assert (forall ((x0 Int)) (|sum[34:0]| x0)))
(check-sat)
(get-model)
(exit)
